c Nemesis formula in 6CNF in accordance with DIMACS CNF format:
c    Filename: MCNC/c2670/c2670.tdl
c    Formula number 145
c    4846 variables (range: 2 - 4847)
c    1643 clauses
c
c p cnf 4847 1643
p cnf 700 1643
42	0
700	0
42	0
-43	0
41	0
29	-30	0
-29	30	0
41	43	0
-41	-43	0
-693	41	0
-693	29	0
41	29	0
-41	-29	0
693	-43	0
-693	43	0
693	-30	0
-693	30	0
43	-30	0
-43	30	0
113	116	0
-117	-695	0
115	-695	0
117	-696	0
-115	-696	0
-696	694	0
-695	694	0
632	115	0
-632	-115	0
-633	116	0
634	117	0
-634	-117	0
636	632	0
-636	-632	0
-637	633	0
638	634	0
-638	-634	0
498	-636	0
-498	636	0
498	-639	0
-498	639	0
499	-637	0
499	-640	0
500	-638	0
-500	638	0
500	-641	0
-500	641	0
-428	-498	0
-501	-498	0
-502	-498	0
-505	-498	0
-503	499	0
-503	-505	0
-503	-501	0
-503	-428	0
-428	-500	0
-501	-500	0
-504	-500	0
-505	-500	0
-436	-691	0
507	-691	0
436	-692	0
-507	-692	0
-692	505	0
-691	505	0
51	-506	0
-51	506	0
51	-507	0
-51	507	0
51	-663	0
-51	663	0
51	-673	0
-51	673	0
272	-439	0
-272	439	0
272	-440	0
-272	440	0
272	-555	0
-272	555	0
273	272	0
266	272	0
269	272	0
274	272	0
277	274	0
110	274	0
278	274	0
91	-126	0
-91	126	0
91	-127	0
-91	127	0
91	-132	0
-91	132	0
91	-134	0
-91	134	0
91	-140	0
-91	140	0
91	-147	0
-91	147	0
91	-150	0
-91	150	0
91	-155	0
-91	155	0
91	-197	0
-91	197	0
91	-208	0
-91	208	0
91	-268	0
-91	268	0
91	-278	0
-91	278	0
91	-283	0
-91	283	0
91	-285	0
-91	285	0
91	-289	0
-91	289	0
91	-330	0
-91	330	0
91	-334	0
-91	334	0
91	-338	0
-91	338	0
91	-357	0
-91	357	0
91	-361	0
-91	361	0
91	-424	0
-91	424	0
123	-124	0
-123	124	0
123	-125	0
-123	125	0
123	-129	0
-123	129	0
123	-131	0
-123	131	0
123	-144	0
-123	144	0
123	-146	0
-123	146	0
123	-200	0
-123	200	0
123	-203	0
-123	203	0
123	-207	0
-123	207	0
123	-210	0
-123	210	0
123	-275	0
-123	275	0
123	-277	0
-123	277	0
123	-280	0
-123	280	0
123	-282	0
-123	282	0
123	-358	0
-123	358	0
123	-360	0
-123	360	0
123	-423	0
-123	423	0
123	-426	0
-123	426	0
362	123	0
-362	-123	0
45	-135	0
-45	135	0
45	-136	0
-45	136	0
45	-139	0
-45	139	0
45	-141	0
-45	141	0
45	-149	0
-45	149	0
45	-151	0
-45	151	0
45	-154	0
-45	154	0
45	-156	0
-45	156	0
45	-196	0
-45	196	0
45	-198	0
-45	198	0
45	-214	0
-45	214	0
45	-267	0
-45	267	0
45	-270	0
-45	270	0
45	-284	0
-45	284	0
45	-286	0
-45	286	0
45	-288	0
-45	288	0
45	-331	0
-45	331	0
45	-333	0
-45	333	0
45	-335	0
-45	335	0
45	-337	0
-45	337	0
45	-353	0
-45	353	0
45	-356	0
-45	356	0
45	-362	0
-45	362	0
270	269	0
28	269	0
271	269	0
128	-137	0
-128	137	0
128	-138	0
-128	138	0
128	-142	0
-128	142	0
128	-145	0
-128	145	0
128	-152	0
-128	152	0
128	-157	0
-128	157	0
128	-199	0
-128	199	0
128	-201	0
-128	201	0
128	-204	0
-128	204	0
128	-211	0
-128	211	0
128	-215	0
-128	215	0
128	-271	0
-128	271	0
128	-276	0
-128	276	0
128	-281	0
-128	281	0
128	-287	0
-128	287	0
128	-332	0
-128	332	0
128	-336	0
-128	336	0
128	-354	0
-128	354	0
128	-359	0
-128	359	0
128	-427	0
-128	427	0
338	128	0
-338	-128	0
267	266	0
80	266	0
268	266	0
275	273	0
109	273	0
276	273	0
78	-347	0
-78	347	0
78	-348	0
-78	348	0
78	-404	0
-78	404	0
78	-412	0
-78	412	0
78	-420	0
-78	420	0
78	-430	0
-78	430	0
78	-434	0
-78	434	0
78	-438	0
-78	438	0
78	-443	0
-78	443	0
341	-345	0
-341	345	0
341	-346	0
-341	346	0
341	-410	0
-341	410	0
341	-419	0
-341	419	0
341	-429	0
-341	429	0
341	-433	0
-341	433	0
341	-437	0
-341	437	0
341	-442	0
-341	442	0
404	341	0
-404	-341	0
475	502	0
-475	-502	0
-476	503	0
477	504	0
-477	-504	0
-478	-475	0
-481	-475	0
-479	476	0
-479	-481	0
-480	-477	0
-481	-477	0
626	481	0
-552	-626	0
-441	-685	0
654	-685	0
441	-686	0
-654	-686	0
-686	552	0
-685	552	0
23	-654	0
-23	654	0
23	-655	0
-23	655	0
23	-660	0
-23	660	0
23	-674	0
-23	674	0
414	-444	0
-414	444	0
414	-445	0
-414	445	0
414	-509	0
-414	509	0
414	-554	0
-414	554	0
425	414	0
153	414	0
422	414	0
423	422	0
63	422	0
424	422	0
426	425	0
38	425	0
427	425	0
418	-668	0
-418	668	0
418	-669	0
-418	669	0
343	-350	0
-343	350	0
343	-351	0
-343	351	0
343	-421	0
-343	421	0
343	-497	0
-343	497	0
279	343	0
355	343	0
352	343	0
353	352	0
105	352	0
354	352	0
356	355	0
11	355	0
357	355	0
665	664	0
-665	-664	0
69	-618	0
-69	618	0
69	-619	0
-69	619	0
69	-662	0
-69	662	0
69	-665	0
-69	665	0
69	-667	0
-69	667	0
69	-675	0
-69	675	0
668	666	0
-668	-666	0
631	625	0
-631	-625	0
344	-630	0
-344	630	0
344	-631	0
-344	631	0
193	-257	0
-193	257	0
193	-258	0
-193	258	0
193	-328	0
-193	328	0
193	-349	0
-193	349	0
194	193	0
195	193	0
122	193	0
124	122	0
18	122	0
126	122	0
200	194	0
36	194	0
201	194	0
3	-259	0
-3	259	0
3	-260	0
-3	260	0
3	-597	0
-3	597	0
3	-624	0
-3	624	0
3	-629	0
-3	629	0
3	-671	0
-3	671	0
621	-627	0
-621	627	0
621	-628	0
-621	628	0
624	621	0
-624	-621	0
486	478	0
-493	479	0
-483	479	0
-483	-656	0
-493	-610	0
-483	486	0
-657	486	0
-611	486	0
-493	486	0
486	480	0
66	-495	0
-66	495	0
66	-496	0
-66	496	0
66	-575	0
-66	575	0
66	-578	0
-66	578	0
66	-672	0
-66	672	0
216	-261	0
-216	261	0
216	-262	0
-216	262	0
216	-329	0
-216	329	0
216	-435	0
-216	435	0
143	216	0
217	216	0
213	216	0
214	213	0
107	213	0
215	213	0
288	217	0
82	217	0
289	217	0
489	482	0
-489	-482	0
-490	483	0
491	484	0
-491	-484	0
407	-489	0
-407	489	0
407	-492	0
-407	492	0
408	-490	0
408	-493	0
409	-491	0
-409	491	0
409	-494	0
-409	494	0
-416	412	0
-413	415	0
-411	41	0
-42	410	0
205	-415	0
-205	415	0
205	-417	0
-205	417	0
202	205	0
133	205	0
130	205	0
131	130	0
67	130	0
132	130	0
203	202	0
74	202	0
204	202	0
50	-656	0
-50	656	0
50	-659	0
-50	659	0
50	-661	0
-50	661	0
50	-676	0
-50	676	0
485	-610	0
-485	610	0
485	-613	0
-485	613	0
485	-616	0
-485	616	0
661	485	0
-661	-485	0
517	501	0
-518	-517	0
-520	-517	0
-521	-517	0
-522	-517	0
-381	-683	0
556	-683	0
381	-684	0
-556	-684	0
-684	522	0
-683	522	0
52	-464	0
-52	464	0
52	-465	0
-52	465	0
52	-529	0
-52	529	0
52	-556	0
-52	556	0
226	-405	0
-226	405	0
226	-406	0
-226	406	0
226	-474	0
-226	474	0
226	-528	0
-226	528	0
226	-574	0
-226	574	0
158	226	0
221	226	0
218	226	0
219	218	0
90	218	0
220	218	0
49	-163	0
-49	163	0
49	-164	0
-49	164	0
49	-168	0
-49	168	0
49	-174	0
-49	174	0
49	-182	0
-49	182	0
49	-185	0
-49	185	0
49	-190	0
-49	190	0
49	-220	0
-49	220	0
49	-229	0
-49	229	0
49	-232	0
-49	232	0
49	-241	0
-49	241	0
49	-246	0
-49	246	0
49	-251	0
-49	251	0
49	-254	0
-49	254	0
49	-290	0
-49	290	0
49	-293	0
-49	293	0
49	-307	0
-49	307	0
49	-368	0
-49	368	0
49	-370	0
-49	370	0
49	-374	0
-49	374	0
49	-378	0
-49	378	0
178	-180	0
-178	180	0
178	-181	0
-178	181	0
178	-219	0
-178	219	0
178	-222	0
-178	222	0
178	-228	0
-178	228	0
178	-231	0
-178	231	0
178	-234	0
-178	234	0
178	-248	0
-178	248	0
178	-250	0
-178	250	0
178	-253	0
-178	253	0
178	-292	0
-178	292	0
178	-295	0
-178	295	0
178	-298	0
-178	298	0
178	-306	0
-178	306	0
178	-309	0
-178	309	0
178	-317	0
-178	317	0
178	-364	0
-178	364	0
178	-367	0
-178	367	0
178	-369	0
-178	369	0
178	-371	0
-178	371	0
391	178	0
-391	-178	0
76	-161	0
-76	161	0
76	-162	0
-76	162	0
76	-165	0
-76	165	0
76	-167	0
-76	167	0
76	-169	0
-76	169	0
76	-173	0
-76	173	0
76	-175	0
-76	175	0
76	-184	0
-76	184	0
76	-186	0
-76	186	0
76	-189	0
-76	189	0
76	-191	0
-76	191	0
76	-225	0
-76	225	0
76	-240	0
-76	240	0
76	-242	0
-76	242	0
76	-245	0
-76	245	0
76	-303	0
-76	303	0
76	-313	0
-76	313	0
76	-373	0
-76	373	0
76	-375	0
-76	375	0
76	-377	0
-76	377	0
76	-391	0
-76	391	0
160	-170	0
-160	170	0
160	-171	0
-160	171	0
160	-176	0
-160	176	0
160	-179	0
-160	179	0
160	-187	0
-160	187	0
160	-192	0
-160	192	0
160	-223	0
-160	223	0
160	-224	0
-160	224	0
160	-235	0
-160	235	0
160	-243	0
-160	243	0
160	-249	0
-160	249	0
160	-296	0
-160	296	0
160	-299	0
-160	299	0
160	-304	0
-160	304	0
160	-310	0
-160	310	0
160	-314	0
-160	314	0
160	-318	0
-160	318	0
160	-365	0
-160	365	0
160	-372	0
-160	372	0
160	-376	0
-160	376	0
290	160	0
-290	-160	0
161	158	0
101	158	0
163	158	0
61	-384	0
-61	384	0
61	-385	0
-61	385	0
61	-386	0
-61	386	0
61	-389	0
-61	389	0
61	-394	0
-61	394	0
61	-448	0
-61	448	0
61	-453	0
-61	453	0
61	-456	0
-61	456	0
61	-460	0
-61	460	0
61	-463	0
-61	463	0
380	-382	0
-380	382	0
380	-383	0
-380	383	0
380	-388	0
-380	388	0
380	-393	0
-380	393	0
380	-447	0
-380	447	0
380	-452	0
-380	452	0
380	-455	0
-380	455	0
380	-459	0
-380	459	0
380	-462	0
-380	462	0
386	380	0
-386	-380	0
535	521	0
-585	-535	0
-446	-679	0
600	-679	0
446	-680	0
-600	-680	0
-680	585	0
-679	585	0
92	-599	0
-92	599	0
92	-600	0
-92	600	0
92	-603	0
-92	603	0
265	-326	0
-265	326	0
265	-327	0
-265	327	0
265	-449	0
-265	449	0
265	-470	0
-265	470	0
265	-472	0
-265	472	0
363	265	0
166	265	0
366	265	0
367	366	0
2	366	0
368	366	0
364	363	0
33	363	0
365	363	0
340	-587	0
-340	587	0
340	-588	0
-340	588	0
118	-263	0
-118	263	0
118	-264	0
-118	264	0
118	-339	0
-118	339	0
118	-342	0
-118	342	0
119	118	0
120	118	0
121	118	0
125	121	0
58	121	0
127	121	0
129	119	0
5	119	0
137	119	0
582	581	0
-582	-581	0
111	-255	0
-111	255	0
111	-256	0
-111	256	0
111	-582	0
-111	582	0
111	-586	0
-111	586	0
111	-596	0
-111	596	0
587	583	0
-587	-583	0
539	534	0
-539	-534	0
387	-538	0
-387	538	0
387	-539	0
-387	539	0
311	-324	0
-311	324	0
311	-325	0
-311	325	0
311	-390	0
-311	390	0
311	-473	0
-311	473	0
311	-508	0
-311	508	0
311	-527	0
-311	527	0
311	-553	0
-311	553	0
308	311	0
239	311	0
305	311	0
306	305	0
56	305	0
307	305	0
309	308	0
25	308	0
310	308	0
57	-530	0
-57	530	0
57	-531	0
-57	531	0
57	-537	0
-57	537	0
395	-396	0
-395	396	0
395	-397	0
-395	397	0
395	-536	0
-395	536	0
531	395	0
-531	-395	0
565	520	0
566	520	0
523	520	0
561	520	0
614	561	0
564	561	0
458	-563	0
-458	563	0
458	-564	0
-458	564	0
236	-548	0
-236	548	0
236	-549	0
-236	549	0
236	-573	0
-236	573	0
236	-598	0
-236	598	0
236	-647	0
-236	647	0
236	-648	0
-236	648	0
236	-651	0
-236	651	0
233	236	0
183	236	0
227	236	0
228	227	0
22	227	0
229	227	0
234	233	0
103	233	0
235	233	0
562	-614	0
-562	614	0
562	-615	0
-562	615	0
562	-617	0
-562	617	0
606	562	0
-606	-562	0
1	-605	0
-1	605	0
1	-606	0
-1	606	0
1	-635	0
-1	635	0
53	-576	0
-53	576	0
53	-577	0
-53	577	0
53	-579	0
-53	579	0
53	-607	0
-53	607	0
315	-540	0
-315	540	0
315	-541	0
-315	541	0
315	-544	0
-315	544	0
315	-572	0
-315	572	0
315	-643	0
-315	643	0
315	-644	0
-315	644	0
315	-646	0
-315	646	0
315	-649	0
-315	649	0
315	-650	0
-315	650	0
315	-652	0
-315	652	0
315	-653	0
-315	653	0
247	315	0
244	315	0
312	315	0
313	312	0
40	312	0
314	312	0
245	244	0
26	244	0
246	244	0
-567	-566	0
-524	-566	0
-557	-566	0
-454	-681	0
559	-681	0
454	-682	0
-559	-682	0
-682	557	0
-681	557	0
93	-558	0
-93	558	0
93	-559	0
-93	559	0
93	-584	0
-93	584	0
237	-320	0
-237	320	0
237	-321	0
-237	321	0
237	-457	0
-237	457	0
237	-525	0
-237	525	0
237	-546	0
-237	546	0
237	-568	0
-237	568	0
237	-589	0
-237	589	0
237	-595	0
-237	595	0
238	237	0
172	237	0
230	237	0
231	230	0
64	230	0
232	230	0
298	238	0
46	238	0
299	238	0
-392	-687	0
532	-687	0
392	-688	0
-532	-688	0
-688	524	0
-687	524	0
81	-532	0
-81	532	0
81	-533	0
-81	533	0
81	-580	0
-81	580	0
81	-620	0
-81	620	0
319	-466	0
-319	466	0
319	-467	0
-319	467	0
319	-468	0
-319	468	0
319	-526	0
-319	526	0
319	-551	0
-319	551	0
319	-601	0
-319	601	0
319	-604	0
-319	604	0
316	319	0
188	319	0
252	319	0
253	252	0
19	252	0
254	252	0
317	316	0
84	316	0
318	316	0
-451	-677	0
609	-677	0
451	-678	0
-609	-678	0
-678	567	0
-677	567	0
99	-608	0
-99	608	0
99	-609	0
-99	609	0
99	-622	0
-99	622	0
99	-623	0
-99	623	0
297	-569	0
-297	569	0
297	-570	0
-297	570	0
297	-571	0
-297	571	0
297	-593	0
-297	593	0
297	-642	0
-297	642	0
297	-645	0
-297	645	0
297	-670	0
-297	670	0
294	297	0
159	297	0
291	297	0
292	291	0
104	291	0
293	291	0
295	294	0
47	294	0
296	294	0
560	565	0
605	565	0
563	560	0
-563	-560	0
-379	-689	0
519	-689	0
379	-690	0
-519	-690	0
-690	518	0
-689	518	0
70	-322	0
-70	322	0
70	-323	0
-70	323	0
70	-519	0
-70	519	0
70	-602	0
-70	602	0
300	-398	0
-300	398	0
300	-399	0
-300	399	0
300	-403	0
-300	403	0
300	-469	0
-300	469	0
300	-471	0
-300	471	0
177	300	0
301	300	0
302	300	0
303	302	0
77	302	0
304	302	0
377	301	0
79	301	0
378	301	0
-516	-514	0
-542	-514	0
510	-542	0
-510	542	0
510	-543	0
-510	543	0
510	-547	0
-510	547	0
510	-590	0
-510	590	0
510	-592	0
-510	592	0
512	510	0
-512	-510	0
106	-512	0
-106	512	0
106	-513	0
-106	513	0
106	-545	0
-106	545	0
106	-550	0
-106	550	0
106	-591	0
-106	591	0
106	-594	0
-106	594	0
450	-515	0
-450	515	0
450	-516	0
-450	516	0
37	450	0
-37	-450	0
-515	-511	0
-513	-511	0
212	-400	0
-212	400	0
212	-401	0
-212	401	0
212	-402	0
-212	402	0
212	-431	0
-212	431	0
209	212	0
148	212	0
206	212	0
207	206	0
8	206	0
208	206	0
210	209	0
31	209	0
211	209	0
-114	-698	0
112	-698	0
114	-699	0
-112	-699	0
-699	697	0
-698	697	0
639	112	0
-639	-112	0
-640	113	0
641	114	0
-641	-114	0
-697	700	0
-694	700	0
693	-29	-41	0
695	117	-115	0
696	-117	115	0
-694	696	695	0
-116	115	117	0
-116	-115	-117	0
-633	632	634	0
-633	-632	-634	0
-499	637	640	0
-640	639	641	0
-640	-639	-641	0
-637	636	638	0
-637	-636	-638	0
-499	498	500	0
-499	-498	-500	0
691	436	-507	0
692	-436	507	0
-505	692	691	0
-437	-34	-436	0
-440	-438	-436	0
438	34	436	0
440	34	436	0
438	437	436	0
440	437	436	0
-503	502	504	0
-503	-502	-504	0
475	478	481	0
-476	475	477	0
-476	-475	-477	0
477	480	481	0
628	630	481	0
625	629	481	0
-667	-666	-626	0
-669	-664	-626	0
685	441	-654	0
686	-441	654	0
-552	686	685	0
-442	-102	-441	0
-445	-443	-441	0
443	102	441	0
445	102	441	0
443	442	441	0
445	442	441	0
156	154	153	0
94	154	153	0
157	154	153	0
156	68	153	0
94	68	153	0
157	68	153	0
156	155	153	0
94	155	153	0
157	155	153	0
-419	-29	-418	0
-421	-420	-418	0
420	29	418	0
421	29	418	0
420	419	418	0
421	419	418	0
282	280	279	0
83	280	279	0
283	280	279	0
282	75	279	0
83	75	279	0
283	75	279	0
282	281	279	0
83	281	279	0
283	281	279	0
-346	-35	-344	0
-349	-348	-344	0
348	35	344	0
349	35	344	0
348	346	344	0
349	346	344	0
198	196	195	0
55	196	195	0
199	196	195	0
198	87	195	0
55	87	195	0
199	87	195	0
198	197	195	0
55	197	195	0
199	197	195	0
610	492	478	0
482	656	478	0
-657	-658	-482	0
-657	-656	-484	0
-657	-482	-484	0
-611	-612	-492	0
-611	-610	-494	0
-611	-492	-494	0
-479	478	480	0
-479	-478	-480	0
610	494	480	0
484	656	480	0
496	432	486	0
-496	-432	486	0
-496	432	-486	0
496	-432	-486	0
-433	-86	-432	0
-435	-434	-432	0
434	86	432	0
435	86	432	0
434	433	432	0
435	433	432	0
146	144	143	0
14	144	143	0
147	144	143	0
146	16	143	0
14	16	143	0
147	16	143	0
146	145	143	0
14	145	143	0
147	145	143	0
-483	482	484	0
-483	-482	-484	0
-408	490	493	0
-493	492	494	0
-493	-492	-494	0
-490	489	491	0
-490	-489	-491	0
-410	-41	-407	0
-415	-412	-407	0
412	41	407	0
415	41	407	0
412	410	407	0
415	410	407	0
-416	-410	-41	0
-413	-410	-41	0
-411	-415	-412	0
-42	-415	-412	0
-408	407	409	0
-408	-407	-409	0
-410	-43	-409	0
-415	-412	-409	0
412	43	409	0
415	43	409	0
412	410	409	0
415	410	409	0
136	135	133	0
13	135	133	0
138	135	133	0
136	100	133	0
13	100	133	0
138	100	133	0
136	134	133	0
13	134	133	0
138	134	133	0
514	511	501	0
-517	-511	-501	0
-517	-514	-501	0
683	381	-556	0
684	-381	556	0
-522	684	683	0
-383	-17	-381	0
-405	-385	-381	0
385	17	381	0
405	17	381	0
385	383	381	0
405	383	381	0
-225	-224	-221	0
224	222	221	0
225	222	221	0
224	39	221	0
225	39	221	0
224	223	221	0
225	223	221	0
536	538	521	0
534	537	521	0
-586	-583	-535	0
-588	-581	-535	0
679	446	-600	0
680	-446	600	0
-585	680	679	0
-447	-88	-446	0
-449	-448	-446	0
448	88	446	0
449	88	446	0
448	447	446	0
449	447	446	0
169	167	166	0
95	167	166	0
171	167	166	0
169	21	166	0
95	21	166	0
171	21	166	0
169	168	166	0
95	168	166	0
171	168	166	0
-345	-96	-340	0
-342	-347	-340	0
347	96	340	0
342	96	340	0
347	345	340	0
342	345	340	0
141	139	120	0
62	139	120	0
142	139	120	0
141	7	120	0
62	7	120	0
142	7	120	0
141	140	120	0
62	140	120	0
142	140	120	0
-388	-108	-387	0
-390	-389	-387	0
389	108	387	0
390	108	387	0
389	388	387	0
390	388	387	0
242	240	239	0
48	240	239	0
243	240	239	0
242	15	239	0
48	15	239	0
243	15	239	0
242	241	239	0
48	241	239	0
243	241	239	0
-561	-614	-564	0
-459	-60	-458	0
-548	-460	-458	0
460	60	458	0
548	60	458	0
460	459	458	0
548	459	458	0
186	184	183	0
59	184	183	0
187	184	183	0
186	10	183	0
59	10	183	0
187	10	183	0
186	185	183	0
59	185	183	0
187	185	183	0
576	461	523	0
-576	-461	523	0
-576	461	-523	0
576	-461	-523	0
-462	-24	-461	0
-540	-463	-461	0
463	24	461	0
540	24	461	0
463	462	461	0
540	462	461	0
250	248	247	0
20	248	247	0
251	248	247	0
250	65	247	0
20	65	247	0
251	65	247	0
250	249	247	0
20	249	247	0
251	249	247	0
681	454	-559	0
682	-454	559	0
-557	682	681	0
-455	-32	-454	0
-457	-456	-454	0
456	32	454	0
457	32	454	0
456	455	454	0
457	455	454	0
175	173	172	0
54	173	172	0
176	173	172	0
175	12	172	0
54	12	172	0
176	12	172	0
175	174	172	0
54	174	172	0
176	174	172	0
687	392	-532	0
688	-392	532	0
-524	688	687	0
-393	-4	-392	0
-466	-394	-392	0
394	4	392	0
466	4	392	0
394	393	392	0
466	393	392	0
191	189	188	0
71	189	188	0
192	189	188	0
191	98	188	0
71	98	188	0
192	98	188	0
191	190	188	0
71	190	188	0
192	190	188	0
677	451	-609	0
678	-451	609	0
-567	678	677	0
-452	-9	-451	0
-569	-453	-451	0
453	9	451	0
569	9	451	0
453	452	451	0
569	452	451	0
165	162	159	0
6	162	159	0
170	162	159	0
165	27	159	0
6	27	159	0
170	27	159	0
165	164	159	0
6	164	159	0
170	164	159	0
-565	-560	-605	0
689	379	-519	0
690	-379	519	0
-518	690	689	0
-382	-44	-379	0
-398	-384	-379	0
384	44	379	0
398	44	379	0
384	382	379	0
398	382	379	0
181	180	177	0
73	180	177	0
182	180	177	0
181	85	177	0
73	85	177	0
182	85	177	0
181	179	177	0
73	179	177	0
182	179	177	0
514	516	542	0
511	515	513	0
-429	-72	-428	0
-431	-430	-428	0
430	72	428	0
431	72	428	0
430	429	428	0
431	429	428	0
151	149	148	0
89	149	148	0
152	149	148	0
151	97	148	0
89	97	148	0
152	97	148	0
151	150	148	0
89	150	148	0
152	150	148	0
698	114	-112	0
699	-114	112	0
-697	699	698	0
-113	112	114	0
-113	-112	-114	0
-700	697	694	0
-274	-277	-110	-278	0
-269	-270	-28	-271	0
-266	-267	-80	-268	0
-273	-275	-109	-276	0
-626	-629	-630	-481	0
-626	-625	-630	-481	0
-626	-629	-628	-481	0
-626	-625	-628	-481	0
552	664	666	626	0
552	669	666	626	0
552	664	667	626	0
552	669	667	626	0
-414	-425	-153	-422	0
-422	-423	-63	-424	0
-155	-68	-154	-153	0
-157	-94	-156	-153	0
-425	-426	-38	-427	0
-343	-279	-355	-352	0
-352	-353	-105	-354	0
-355	-356	-11	-357	0
-281	-75	-280	-279	0
-283	-83	-282	-279	0
-193	-194	-195	-122	0
-122	-124	-18	-126	0
-197	-87	-196	-195	0
-199	-55	-198	-195	0
-194	-200	-36	-201	0
-486	-656	-492	-478	0
-486	-482	-492	-478	0
-486	-656	-610	-478	0
-486	-482	-610	-478	0
-487	656	-488	484	0
-487	656	-486	482	0
-487	656	482	484	0
-487	610	-488	494	0
-487	610	-486	492	0
-487	610	492	494	0
-483	610	-484	494	0
-483	610	-482	492	0
-483	610	492	494	0
-657	610	-658	494	0
-657	610	-656	492	0
-657	610	492	494	0
-611	656	-612	484	0
-611	656	-610	482	0
-611	656	482	484	0
-493	656	-494	484	0
-493	656	-492	482	0
-493	656	482	484	0
-486	-656	-494	-480	0
-486	-484	-494	-480	0
-486	-656	-610	-480	0
-486	-484	-610	-480	0
-216	-143	-217	-213	0
-213	-214	-107	-215	0
-217	-288	-82	-289	0
-145	-16	-144	-143	0
-147	-14	-146	-143	0
-205	-202	-133	-130	0
-130	-131	-67	-132	0
-134	-100	-135	-133	0
-138	-13	-136	-133	0
-202	-203	-74	-204	0
-226	-158	-221	-218	0
-218	-219	-90	-220	0
-223	-39	-222	-221	0
-158	-161	-101	-163	0
-535	-537	-538	-521	0
-535	-534	-538	-521	0
-535	-537	-536	-521	0
-535	-534	-536	-521	0
585	581	583	535	0
585	588	583	535	0
585	581	586	535	0
585	588	586	535	0
-265	-363	-166	-366	0
-366	-367	-2	-368	0
-168	-21	-167	-166	0
-171	-95	-169	-166	0
-363	-364	-33	-365	0
-118	-119	-120	-121	0
-121	-125	-58	-127	0
-140	-7	-139	-120	0
-142	-62	-141	-120	0
-119	-129	-5	-137	0
-311	-308	-239	-305	0
-305	-306	-56	-307	0
-241	-15	-240	-239	0
-243	-48	-242	-239	0
-308	-309	-25	-310	0
-236	-233	-183	-227	0
-227	-228	-22	-229	0
-185	-10	-184	-183	0
-187	-59	-186	-183	0
-233	-234	-103	-235	0
-315	-247	-244	-312	0
-312	-313	-40	-314	0
-244	-245	-26	-246	0
-249	-65	-248	-247	0
-251	-20	-250	-247	0
566	567	524	557	0
-237	-238	-172	-230	0
-230	-231	-64	-232	0
-174	-12	-173	-172	0
-176	-54	-175	-172	0
-238	-298	-46	-299	0
-319	-316	-188	-252	0
-252	-253	-19	-254	0
-190	-98	-189	-188	0
-192	-71	-191	-188	0
-316	-317	-84	-318	0
-297	-294	-159	-291	0
-291	-292	-104	-293	0
-164	-27	-162	-159	0
-170	-6	-165	-159	0
-294	-295	-47	-296	0
-300	-177	-301	-302	0
-302	-303	-77	-304	0
-301	-377	-79	-378	0
-179	-85	-180	-177	0
-182	-73	-181	-177	0
-212	-209	-148	-206	0
-206	-207	-8	-208	0
-150	-97	-149	-148	0
-152	-89	-151	-148	0
-209	-210	-31	-211	0
498	428	501	502	505	0
500	428	501	504	505	0
-272	-273	-266	-269	-274	0
517	518	520	521	522	0
-520	-565	-566	-523	-561	0
